c ind 10 101 103 105 107 109 13 150 172 174 0
c ind 176 178 180 182 184 186 188 190 192 194 0
c ind 196 198 200 202 219 221 223 225 227 229 0
c ind 231 233 235 237 239 241 243 245 247 249 0
c ind 266 268 270 272 274 276 278 280 282 284 0
c ind 286 288 290 292 294 296 30 31 33 35 0
c ind 37 39 41 43 45 47 49 5 51 53 0
c ind 55 57 59 6 61 71 74 75 78 9 0
c ind 95 97 99 0
p cnf 296 774
-1 -2 11 0
-1 2 250 0
-100 -101 31 0
-100 -31 101 0
-102 -103 31 0
-102 -31 103 0
-104 -105 31 0
-104 -31 105 0
-106 -107 31 0
-106 -31 107 0
-108 -109 13 0
-108 -13 109 0
-11 -12 14 0
-11 12 62 0
-110 111 0
-110 144 0
-111 112 0
-111 140 0
-112 113 0
-112 136 0
-113 114 0
-113 132 0
-114 115 0
-114 128 0
-115 116 0
-115 124 0
-116 117 0
-116 120 0
-117 -118 31 0
-117 -31 118 0
-118 -119 -31 0
-118 119 31 0
-119 -95 -13 0
-119 95 13 0
-12 -13 5 0
-12 -5 13 0
-120 -121 31 0
-120 -31 121 0
-121 -122 -123 0
-121 122 123 0
-122 -97 -31 0
-122 97 31 0
-123 95 31 0
-124 -125 31 0
-124 -31 125 0
-125 -126 -127 0
-125 126 127 0
-126 -99 -31 0
-126 99 31 0
-127 123 0
-127 97 0
-128 -129 31 0
-128 -31 129 0
-129 -130 -131 0
-129 130 131 0
-130 -101 -31 0
-130 101 31 0
-131 127 0
-131 99 0
-132 -133 31 0
-132 -31 133 0
-133 -134 -135 0
-133 134 135 0
-134 -103 -31 0
-134 103 31 0
-135 101 0
-135 131 0
-136 -137 31 0
-136 -31 137 0
-137 -138 -139 0
-137 138 139 0
-138 -105 -31 0
-138 105 31 0
-139 103 0
-139 135 0
-14 15 0
-14 60 0
-140 -141 31 0
-140 -31 141 0
-141 -142 -143 0
-141 142 143 0
-142 -107 -31 0
-142 107 31 0
-143 105 0
-143 139 0
-144 -13 145 0
-144 -145 13 0
-145 -146 -147 0
-145 146 147 0
-146 -109 -31 0
-146 109 31 0
-147 107 0
-147 143 0
-148 -149 14 0
-148 149 151 0
-149 -13 150 0
-149 -150 13 0
-15 16 0
-15 58 0
-151 -67 152 0
-151 67 203 0
-152 -80 14 0
-152 80 153 0
-153 -82 14 0
-153 82 154 0
-154 -84 155 0
-154 84 203 0
-155 -87 14 0
-155 87 156 0
-156 157 0
-156 201 0
-157 158 0
-157 199 0
-158 159 0
-158 197 0
-159 160 0
-159 195 0
-16 17 0
-16 56 0
-160 161 0
-160 193 0
-161 162 0
-161 191 0
-162 163 0
-162 189 0
-163 164 0
-163 187 0
-164 165 0
-164 185 0
-165 166 0
-165 183 0
-166 167 0
-166 181 0
-167 168 0
-167 179 0
-168 169 0
-168 177 0
-169 170 0
-169 175 0
-17 18 0
-17 54 0
-170 171 0
-170 173 0
-171 -172 30 0
-171 -30 172 0
-173 -174 33 0
-173 -33 174 0
-175 -176 35 0
-175 -35 176 0
-177 -178 37 0
-177 -37 178 0
-179 -180 39 0
-179 -39 180 0
-18 19 0
-18 52 0
-181 -182 41 0
-181 -41 182 0
-183 -184 43 0
-183 -43 184 0
-185 -186 45 0
-185 -45 186 0
-187 -188 47 0
-187 -47 188 0
-189 -190 49 0
-189 -49 190 0
-19 20 0
-19 50 0
-191 -192 51 0
-191 -51 192 0
-193 -194 53 0
-193 -53 194 0
-195 -196 55 0
-195 -55 196 0
-197 -198 57 0
-197 -57 198 0
-199 -200 59 0
-199 -59 200 0
-2 3 7 0
-20 21 0
-20 48 0
-201 -202 61 0
-201 -61 202 0
-203 204 0
-203 248 0
-204 205 0
-204 246 0
-205 206 0
-205 244 0
-206 207 0
-206 242 0
-207 208 0
-207 240 0
-208 209 0
-208 238 0
-209 210 0
-209 236 0
-21 22 0
-21 46 0
-210 211 0
-210 234 0
-211 212 0
-211 232 0
-212 213 0
-212 230 0
-213 214 0
-213 228 0
-214 215 0
-214 226 0
-215 216 0
-215 224 0
-216 217 0
-216 222 0
-217 218 0
-217 220 0
-218 -219 30 0
-218 -30 219 0
-22 23 0
-22 44 0
-220 -221 33 0
-220 -33 221 0
-222 -223 35 0
-222 -35 223 0
-224 -225 37 0
-224 -37 225 0
-226 -227 39 0
-226 -39 227 0
-228 -229 41 0
-228 -41 229 0
-23 24 0
-23 42 0
-230 -231 43 0
-230 -43 231 0
-232 -233 45 0
-232 -45 233 0
-234 -235 47 0
-234 -47 235 0
-236 -237 49 0
-236 -49 237 0
-238 -239 51 0
-238 -51 239 0
-24 25 0
-24 40 0
-240 -241 53 0
-240 -53 241 0
-242 -243 55 0
-242 -55 243 0
-244 -245 57 0
-244 -57 245 0
-246 -247 59 0
-246 -59 247 0
-248 -249 61 0
-248 -61 249 0
-25 26 0
-25 38 0
-250 251 0
-250 295 0
-251 252 0
-251 293 0
-252 253 0
-252 291 0
-253 254 0
-253 289 0
-254 255 0
-254 287 0
-255 256 0
-255 285 0
-256 257 0
-256 283 0
-257 258 0
-257 281 0
-258 259 0
-258 279 0
-259 260 0
-259 277 0
-26 27 0
-26 36 0
-260 261 0
-260 275 0
-261 262 0
-261 273 0
-262 263 0
-262 271 0
-263 264 0
-263 269 0
-264 265 0
-264 267 0
-265 -266 30 0
-265 -30 266 0
-267 -268 33 0
-267 -33 268 0
-269 -270 35 0
-269 -35 270 0
-27 28 0
-27 34 0
-271 -272 37 0
-271 -37 272 0
-273 -274 39 0
-273 -39 274 0
-275 -276 41 0
-275 -41 276 0
-277 -278 43 0
-277 -43 278 0
-279 -280 45 0
-279 -45 280 0
-28 29 0
-28 32 0
-281 -282 47 0
-281 -47 282 0
-283 -284 49 0
-283 -49 284 0
-285 -286 51 0
-285 -51 286 0
-287 -288 53 0
-287 -53 288 0
-289 -290 55 0
-289 -55 290 0
-29 -30 31 0
-29 -31 30 0
-291 -292 57 0
-291 -57 292 0
-293 -294 59 0
-293 -59 294 0
-295 -296 61 0
-295 -61 296 0
-3 -4 0
-31 0
-32 -31 33 0
-32 -33 31 0
-34 -31 35 0
-34 -35 31 0
-36 -31 37 0
-36 -37 31 0
-38 -31 39 0
-38 -39 31 0
-4 -5 6 0
-4 -6 5 0
-40 -31 41 0
-40 -41 31 0
-42 -31 43 0
-42 -43 31 0
-44 -31 45 0
-44 -45 31 0
-46 -31 47 0
-46 -47 31 0
-48 -31 49 0
-48 -49 31 0
-50 -31 51 0
-50 -51 31 0
-52 -31 53 0
-52 -53 31 0
-54 -31 55 0
-54 -55 31 0
-56 -31 57 0
-56 -57 31 0
-58 -31 59 0
-58 -59 31 0
-60 -31 61 0
-60 -61 31 0
-62 -63 65 0
-62 63 250 0
-63 64 0
-63 7 0
-64 -13 9 0
-64 -9 13 0
-65 -66 148 0
-65 66 250 0
-66 -67 79 0
-66 67 87 0
-67 68 76 0
-68 69 72 0
-69 -70 0
-7 -8 0
-70 -6 71 0
-70 -71 6 0
-72 -73 0
-73 -74 75 0
-73 -75 74 0
-76 -77 0
-77 -10 78 0
-77 -78 10 0
-79 -80 31 0
-79 80 81 0
-8 -10 9 0
-8 -9 10 0
-80 -13 6 0
-80 -6 13 0
-81 -82 31 0
-81 82 83 0
-82 -13 74 0
-82 -74 13 0
-83 -84 86 0
-83 84 87 0
-84 76 0
-84 85 0
-85 -10 13 0
-85 -13 10 0
-86 -87 31 0
-86 87 110 0
-87 108 0
-87 88 0
-88 106 0
-88 89 0
-89 104 0
-89 90 0
-90 102 0
-90 91 0
-91 100 0
-91 92 0
-92 93 0
-92 98 0
-93 94 0
-93 96 0
-94 -31 95 0
-94 -95 31 0
-96 -31 97 0
-96 -97 31 0
-98 -31 99 0
-98 -99 31 0
1 -11 -250 0
1 -2 -11 0
1 0
1 2 -250 0
100 -101 -31 0
100 101 31 0
102 -103 -31 0
102 103 31 0
104 -105 -31 0
104 105 31 0
106 -107 -31 0
106 107 31 0
108 -109 -13 0
108 109 13 0
11 -12 -14 0
11 -14 -62 0
11 12 -62 0
110 -111 -144 0
111 -112 -140 0
112 -113 -136 0
113 -114 -132 0
114 -115 -128 0
115 -116 -124 0
116 -117 -120 0
117 -118 -31 0
117 118 31 0
118 -119 31 0
118 -31 119 0
119 -13 95 0
119 -95 13 0
12 -5 -13 0
12 5 13 0
120 -121 -31 0
120 121 31 0
121 -122 123 0
121 -123 122 0
122 -31 97 0
122 -97 31 0
123 -31 0
123 -95 0
124 -125 -31 0
124 125 31 0
125 -126 127 0
125 -127 126 0
126 -31 99 0
126 -99 31 0
127 -97 -123 0
128 -129 -31 0
128 129 31 0
129 -130 131 0
129 -131 130 0
13 0
130 -101 31 0
130 -31 101 0
131 -99 -127 0
132 -133 -31 0
132 133 31 0
133 -134 135 0
133 -135 134 0
134 -103 31 0
134 -31 103 0
135 -101 -131 0
136 -137 -31 0
136 137 31 0
137 -138 139 0
137 -139 138 0
138 -105 31 0
138 -31 105 0
139 -103 -135 0
14 -15 -60 0
140 -141 -31 0
140 141 31 0
141 -142 143 0
141 -143 142 0
142 -107 31 0
142 -31 107 0
143 -105 -139 0
144 -145 -13 0
144 145 13 0
145 -146 147 0
145 -147 146 0
146 -109 31 0
146 -31 109 0
147 -107 -143 0
148 -14 -151 0
148 -149 -14 0
148 149 -151 0
149 -150 -13 0
149 150 13 0
15 -16 -58 0
151 -152 -203 0
151 -67 -152 0
151 67 -203 0
152 -14 -153 0
152 -80 -14 0
152 80 -153 0
153 -14 -154 0
153 -82 -14 0
153 82 -154 0
154 -155 -203 0
154 -84 -155 0
154 84 -203 0
155 -14 -156 0
155 -87 -14 0
155 87 -156 0
156 -157 -201 0
157 -158 -199 0
158 -159 -197 0
159 -160 -195 0
16 -17 -56 0
160 -161 -193 0
161 -162 -191 0
162 -163 -189 0
163 -164 -187 0
164 -165 -185 0
165 -166 -183 0
166 -167 -181 0
167 -168 -179 0
168 -169 -177 0
169 -170 -175 0
17 -18 -54 0
170 -171 -173 0
171 -30 -172 0
171 30 172 0
173 -33 -174 0
173 33 174 0
175 -35 -176 0
175 35 176 0
177 -37 -178 0
177 37 178 0
179 -39 -180 0
179 39 180 0
18 -19 -52 0
181 -41 -182 0
181 41 182 0
183 -43 -184 0
183 43 184 0
185 -45 -186 0
185 45 186 0
187 -47 -188 0
187 47 188 0
189 -49 -190 0
189 49 190 0
19 -20 -50 0
191 -51 -192 0
191 51 192 0
193 -53 -194 0
193 53 194 0
195 -55 -196 0
195 55 196 0
197 -57 -198 0
197 57 198 0
199 -59 -200 0
199 59 200 0
2 -3 0
2 -7 0
20 -21 -48 0
201 -61 -202 0
201 61 202 0
203 -204 -248 0
204 -205 -246 0
205 -206 -244 0
206 -207 -242 0
207 -208 -240 0
208 -209 -238 0
209 -210 -236 0
21 -22 -46 0
210 -211 -234 0
211 -212 -232 0
212 -213 -230 0
213 -214 -228 0
214 -215 -226 0
215 -216 -224 0
216 -217 -222 0
217 -218 -220 0
218 -30 -219 0
218 30 219 0
22 -23 -44 0
220 -33 -221 0
220 33 221 0
222 -35 -223 0
222 35 223 0
224 -37 -225 0
224 37 225 0
226 -39 -227 0
226 39 227 0
228 -41 -229 0
228 41 229 0
23 -24 -42 0
230 -43 -231 0
230 43 231 0
232 -45 -233 0
232 45 233 0
234 -47 -235 0
234 47 235 0
236 -49 -237 0
236 49 237 0
238 -51 -239 0
238 51 239 0
24 -25 -40 0
240 -53 -241 0
240 53 241 0
242 -55 -243 0
242 55 243 0
244 -57 -245 0
244 57 245 0
246 -59 -247 0
246 59 247 0
248 -61 -249 0
248 61 249 0
25 -26 -38 0
250 -251 -295 0
251 -252 -293 0
252 -253 -291 0
253 -254 -289 0
254 -255 -287 0
255 -256 -285 0
256 -257 -283 0
257 -258 -281 0
258 -259 -279 0
259 -260 -277 0
26 -27 -36 0
260 -261 -275 0
261 -262 -273 0
262 -263 -271 0
263 -264 -269 0
264 -265 -267 0
265 -30 -266 0
265 30 266 0
267 -33 -268 0
267 33 268 0
269 -35 -270 0
269 35 270 0
27 -28 -34 0
271 -37 -272 0
271 37 272 0
273 -39 -274 0
273 39 274 0
275 -41 -276 0
275 41 276 0
277 -43 -278 0
277 43 278 0
279 -45 -280 0
279 45 280 0
28 -29 -32 0
281 -47 -282 0
281 47 282 0
283 -49 -284 0
283 49 284 0
285 -51 -286 0
285 51 286 0
287 -53 -288 0
287 53 288 0
289 -55 -290 0
289 55 290 0
29 -30 -31 0
29 30 31 0
291 -57 -292 0
291 57 292 0
293 -59 -294 0
293 59 294 0
295 -61 -296 0
295 61 296 0
3 4 0
32 -33 -31 0
32 33 31 0
34 -35 -31 0
34 35 31 0
36 -37 -31 0
36 37 31 0
38 -39 -31 0
38 39 31 0
4 -5 -6 0
4 5 6 0
40 -41 -31 0
40 41 31 0
42 -43 -31 0
42 43 31 0
44 -45 -31 0
44 45 31 0
46 -47 -31 0
46 47 31 0
48 -49 -31 0
48 49 31 0
50 -51 -31 0
50 51 31 0
52 -53 -31 0
52 53 31 0
54 -55 -31 0
54 55 31 0
56 -57 -31 0
56 57 31 0
58 -59 -31 0
58 59 31 0
60 -61 -31 0
60 61 31 0
62 -63 -65 0
62 -65 -250 0
62 63 -250 0
63 -7 -64 0
64 -9 -13 0
64 9 13 0
65 -148 -250 0
65 -66 -148 0
65 66 -250 0
66 -67 -79 0
66 -79 -87 0
66 67 -87 0
67 -68 0
67 -76 0
68 -69 0
68 -72 0
69 70 0
7 8 0
70 -6 -71 0
70 6 71 0
72 73 0
73 -74 -75 0
73 74 75 0
76 77 0
77 -10 -78 0
77 10 78 0
79 -31 -81 0
79 -80 -31 0
79 80 -81 0
8 -9 -10 0
8 9 10 0
80 -6 -13 0
80 6 13 0
81 -31 -83 0
81 -82 -31 0
81 82 -83 0
82 -74 -13 0
82 74 13 0
83 -84 -86 0
83 -86 -87 0
83 84 -87 0
84 -76 -85 0
85 -10 -13 0
85 10 13 0
86 -31 -110 0
86 -87 -31 0
86 87 -110 0
87 -88 -108 0
88 -89 -106 0
89 -90 -104 0
90 -91 -102 0
91 -92 -100 0
92 -93 -98 0
93 -94 -96 0
94 -95 -31 0
94 95 31 0
96 -97 -31 0
96 97 31 0
98 -99 -31 0
98 99 31 0
